c nIsolatedPIs 0
c maxPI 16
p cnf 78 187
c gate 17 2 -10 0
2 -17 0
-10 -17 0
-2 10 17 0
c gate 18 -2 10 0
-2 -18 0
10 -18 0
2 -10 18 0
c gate 19 -17 -18 0
-17 -19 0
-18 -19 0
17 18 19 0
c gate 20 1 -9 0
1 -20 0
-9 -20 0
-1 9 20 0
c gate 21 -8 16 0
-8 -21 0
16 -21 0
8 -16 21 0
c gate 22 8 -16 0
8 -22 0
-16 -22 0
-8 16 22 0
c gate 23 7 -15 0
7 -23 0
-15 -23 0
-7 15 23 0
c gate 24 5 -13 0
5 -24 0
-13 -24 0
-5 13 24 0
c gate 25 -5 13 0
-5 -25 0
13 -25 0
5 -13 25 0
c gate 26 -24 -25 0
-24 -26 0
-25 -26 0
24 25 26 0
c gate 27 6 -14 0
6 -27 0
-14 -27 0
-6 14 27 0
c gate 28 -6 14 0
-6 -28 0
14 -28 0
6 -14 28 0
c gate 29 -27 -28 0
-27 -29 0
-28 -29 0
27 28 29 0
c gate 30 26 29 0
26 -30 0
29 -30 0
-26 -29 30 0
c gate 31 -25 -28 0
-25 -31 0
-28 -31 0
25 28 31 0
c gate 32 -27 -31 0
-27 -32 0
-31 -32 0
27 31 32 0
c gate 33 -30 -32 0
-30 -33 0
-32 -33 0
30 32 33 0
c gate 34 -23 -33 0
-23 -34 0
-33 -34 0
23 33 34 0
c gate 35 -7 15 0
-7 -35 0
15 -35 0
7 -15 35 0
c gate 36 -34 -35 0
-34 -36 0
-35 -36 0
34 35 36 0
c gate 37 -22 -36 0
-22 -37 0
-36 -37 0
22 36 37 0
c gate 38 -21 -37 0
-21 -38 0
-37 -38 0
21 37 38 0
c gate 39 20 -38 0
20 -39 0
-38 -39 0
-20 38 39 0
c gate 40 -1 9 0
-1 -40 0
9 -40 0
1 -9 40 0
c gate 41 38 40 0
38 -41 0
40 -41 0
-38 -40 41 0
c gate 42 -39 -41 0
-39 -42 0
-41 -42 0
39 41 42 0
c gate 43 19 42 0
19 -43 0
42 -43 0
-19 -42 43 0
c gate 44 -19 -42 0
-19 -44 0
-42 -44 0
19 42 44 0
c gate 45 -43 -44 0
-43 -45 0
-44 -45 0
43 44 45 0
c gate 46 19 -20 0
19 -46 0
-20 -46 0
-19 20 46 0
c gate 47 -40 46 0
-40 -47 0
46 -47 0
40 -46 47 0
c gate 48 4 -12 0
4 -48 0
-12 -48 0
-4 12 48 0
c gate 49 -4 12 0
-4 -49 0
12 -49 0
4 -12 49 0
c gate 50 -48 -49 0
-48 -50 0
-49 -50 0
48 49 50 0
c gate 51 -3 11 0
-3 -51 0
11 -51 0
3 -11 51 0
c gate 52 3 -11 0
3 -52 0
-11 -52 0
-3 11 52 0
c gate 53 -51 -52 0
-51 -53 0
-52 -53 0
51 52 53 0
c gate 54 50 53 0
50 -54 0
53 -54 0
-50 -53 54 0
c gate 55 47 54 0
47 -55 0
54 -55 0
-47 -54 55 0
c gate 56 -21 -22 0
-21 -56 0
-22 -56 0
21 22 56 0
c gate 57 -23 -35 0
-23 -57 0
-35 -57 0
23 35 57 0
c gate 58 56 57 0
56 -58 0
57 -58 0
-56 -57 58 0
c gate 59 30 58 0
30 -59 0
58 -59 0
-30 -58 59 0
c gate 60 55 59 0
55 -60 0
59 -60 0
-55 -59 60 0
c gate 61 -18 -46 0
-18 -61 0
-46 -61 0
18 46 61 0
c gate 62 -52 -61 0
-52 -62 0
-61 -62 0
52 61 62 0
c gate 63 -51 -62 0
-51 -63 0
-62 -63 0
51 62 63 0
c gate 64 -48 -63 0
-48 -64 0
-63 -64 0
48 63 64 0
c gate 65 -49 -64 0
-49 -65 0
-64 -65 0
49 64 65 0
c gate 66 59 65 0
59 -66 0
65 -66 0
-59 -65 66 0
c gate 67 -38 -66 0
-38 -67 0
-66 -67 0
38 66 67 0
c gate 68 -60 -67 0
-60 -68 0
-67 -68 0
60 67 68 0
c gate 69 -40 68 0
-40 -69 0
68 -69 0
40 -68 69 0
c gate 70 -20 -68 0
-20 -70 0
-68 -70 0
20 68 70 0
c gate 71 -69 -70 0
-69 -71 0
-70 -71 0
69 70 71 0
c gate 72 19 71 0
19 -72 0
71 -72 0
-19 -71 72 0
c gate 73 -19 -71 0
-19 -73 0
-71 -73 0
19 71 73 0
c gate 74 -72 -73 0
-72 -74 0
-73 -74 0
72 73 74 0
c gate 75 -45 -74 0
-45 -75 0
-74 -75 0
45 74 75 0
c gate 76 -38 68 0
-38 -76 0
68 -76 0
38 -68 76 0
c gate 77 -43 76 0
-43 -77 0
76 -77 0
43 -76 77 0
c gate 78 -75 77 0
-75 -78 0
77 -78 0
75 -77 78 0
c PO
78 0
